(set-info :smt-lib-version 2.6)
(set-logic QF_AX)
(set-info :source |
Benchmarks used in the followin paper:
Big proof engines as little proof engines: new results on rewrite-based satisfiability procedure
Alessandro Armando, Maria Paola Bonacina, Silvio Ranise, Stephan Schulz. 
PDPAR'05
http://www.ai.dist.unige.it/pdpar05/


|)
(set-info :category "crafted")
(set-info :status sat)
(declare-sort Index 0)
(declare-sort Element 0)
(declare-fun a_185 () (Array Index Element))
(declare-fun a_186 () (Array Index Element))
(declare-fun a_188 () (Array Index Element))
(declare-fun a_190 () (Array Index Element))
(declare-fun a_192 () (Array Index Element))
(declare-fun a_193 () (Array Index Element))
(declare-fun a_194 () (Array Index Element))
(declare-fun a_195 () (Array Index Element))
(declare-fun a_197 () (Array Index Element))
(declare-fun a_199 () (Array Index Element))
(declare-fun e_184 () Element)
(declare-fun e_187 () Element)
(declare-fun e_189 () Element)
(declare-fun e_191 () Element)
(declare-fun e_196 () Element)
(declare-fun e_198 () Element)
(declare-fun a1 () (Array Index Element))
(declare-fun i0 () Index)
(declare-fun i2 () Index)
(assert (= a_185 (store a1 i0 e_184)))
(assert (= a_186 (store a_185 i0 e_184)))
(assert (= a_188 (store a_186 i0 e_187)))
(assert (= a_190 (store a_188 i2 e_189)))
(assert (= a_192 (store a_190 i2 e_191)))
(assert (= a_193 (store a_192 i2 e_191)))
(assert (= a_194 (store a_186 i2 e_189)))
(assert (= a_195 (store a_194 i0 e_187)))
(assert (= a_197 (store a_195 i2 e_196)))
(assert (= a_199 (store a_197 i0 e_198)))
(assert (= e_184 (select a1 i0)))
(assert (= e_187 (select a_186 i2)))
(assert (= e_189 (select a_186 i0)))
(assert (= e_191 (select a_190 i2)))
(assert (= e_196 (select a_195 i0)))
(assert (= e_198 (select a_195 i2)))
(assert (not (= a_193 a_199)))
(check-sat)
(exit)
